LAMMPS (10 Mar 2021)
# ## Defining global variables -----------------------------------------------------
variable		seed equal 5008
variable		tstep equal  .0001
variable		rstep equal 100/${tstep}
variable		rstep equal 100/0.0001
variable 		r2step equal 2*${rstep}
variable 		r2step equal 2*1000000
variable		savestep equal 10/${tstep}
variable		savestep equal 10/0.0001
variable		F equal .5
variable   		n equal  5  # Total number will be NXN
variable   		TN equal ${n}*${n}
variable   		TN equal 5*${n}
variable   		TN equal 5*5

# For LJ Potentials
variable		gamma_rep equal ${M}  # ideally 12
variable		gamma_rep equal 12  
variable		gamma_att equal ${N}  # ideally 6
variable		gamma_att equal 0  
variable    	disorder equal ${D}
variable    	disorder equal 0
variable		sigma_a equal  1+${disorder}
variable		sigma_a equal  1+0
variable    	sigma_b equal  1-${disorder}
variable    	sigma_b equal  1-0
variable    	sigma_ab equal  (${sigma_a}+${sigma_b})/2
variable    	sigma_ab equal  (1+${sigma_b})/2
variable    	sigma_ab equal  (1+1)/2
variable    	alpha equal  1
if "${N} == 0" then "variable rmin equal 1" else "variable rmin equal ($M/$N)^(1/($M-$N))"
variable rmin equal 1
if "${N} == 0" then "variable r_cut_a equal ${sigma_a}" else "variable r_cut_a equal ${sigma_a}*${alpha}"
variable r_cut_a equal ${sigma_a}
variable r_cut_a equal 1
if "${N} == 0" then "variable r_cut_b equal ${sigma_b}" else "variable r_cut_b equal ${sigma_b}*${alpha}"
variable r_cut_b equal ${sigma_b}
variable r_cut_b equal 1
variable 		r_cut_ab equal (${r_cut_a}+${r_cut_b})/2
variable 		r_cut_ab equal (1+${r_cut_b})/2
variable 		r_cut_ab equal (1+1)/2
variable 		a equal  ${sigma_a}#(${rmin})
variable 		a equal  1
variable 		c equal  2/(sqrt(3)*($a^2))
variable 		c equal  2/(sqrt(3)*(1^2))

# 2d LJ obstacle flow
dimension 		2
boundary		p p p
atom_style 		sphere
neighbor 		0.3 bin
neigh_modify 	delay 5
comm_modify    	vel yes

# create geometry
lattice 		hex ${c}
lattice 		hex 1.15470053837925
Lattice spacing in x,y,z = 1.0000000 1.7320508 1.0000000
region 			box block 0 50 0 30 -0.25 0.25
# region 			box block 0 1 0 .5 -0.25 0.25
create_box 		2 box
Created orthogonal box = (0.0000000 0.0000000 -0.25000000) to (50.000000 51.961524 0.25000000)
  1 by 1 by 1 MPI processor grid
create_atoms 	1 box
Created 3000 atoms
  create_atoms CPU = 0.004 seconds
change_box  	all triclinic
Changing box ...
  triclinic box = (0.0000000 0.0000000 -0.25000000) to (50.000000 51.961524 0.25000000) with tilt (0.0000000 0.0000000 0.0000000)

group 			mobile type 1
3000 atoms in group mobile
set				group mobile type/fraction 2 ${F} 12345
set				group mobile type/fraction 2 0.5 12345
Setting atom values ...
  1488 settings made for type/fraction
set             type 1 diameter ${sigma_a}
set             type 1 diameter 1
Setting atom values ...
  1512 settings made for diameter
set             type 2 diameter ${sigma_b}
set             type 2 diameter 1
Setting atom values ...
  1488 settings made for diameter

# potentials functions
pair_style      lj/cut 1
pair_coeff      1 1 1.0 ${sigma_a} ${r_cut_a}
pair_coeff      1 1 1.0 1 ${r_cut_a}
pair_coeff      1 1 1.0 1 1
pair_coeff      2 2 1.0 ${sigma_b} ${r_cut_b}
pair_coeff      2 2 1.0 1 ${r_cut_b}
pair_coeff      2 2 1.0 1 1
pair_coeff      1 2 1.0 ${sigma_ab} ${r_cut_ab}
pair_coeff      1 2 1.0 1 ${r_cut_ab}
pair_coeff      1 2 1.0 1 1
pair_modify     shift yes

# pair_style    	mie/cut 1
# pair_coeff    	1 1 1.0 ${sigma_a} ${gamma_rep} ${gamma_att} ${r_cut_a}
# pair_coeff    	2 2 1.0 ${sigma_b} ${gamma_rep} ${gamma_att} ${r_cut_b}
# pair_coeff    	1 2 1.0 ${sigma_ab} ${gamma_rep} ${gamma_att} ${r_cut_ab}
# # pair_coeff    	1 2 1.0 1 ${gamma_rep} ${gamma_att} 1
# pair_modify     shift yes

fix 			2d  all enforce2d

# # Store final cell length for strain calculations
variable tmp equal "ly"
variable L0 equal ${tmp}
variable L0 equal 51.9615242270663

######################################
# Output Setup
variable        t equal "step*dt"
thermo	        ${savestep}
thermo	        100000
# pe is per atom in thermo
# thermo_style    custom atoms v_t step temp pe ke etotal ecouple econserve xlo xhi ylo yhi
compute 		myTemp all temp/deform
# compute 		myTemp1 all temp
thermo_style 	custom atoms v_t step pe ke etotal lx ly lz press pxx pyy pzz
# thermo_modify   lost ignore
thermo_modify temp myTemp
compute 		csym all centro/atom 6
compute 		peratom all pe/atom
compute         c1 all ke/atom
compute         c2 all pe/atom
compute         3 all stress/atom myTemp
compute         1 all property/local patom1 patom2 ptype1 ptype2
compute 	    2 all pair/local dist eng fx fy fz #p1 p2 p3
dump   	        1 all custom ${savestep} visualize.du 								id type radius 								x y z 								vx vy vz 								fx fy fz 								c_c1 c_c2 								c_3[1] c_3[2] c_3[3] c_3[4] c_3[5] c_3[6]
dump   	        1 all custom 100000 visualize.du 								id type radius 								x y z 								vx vy vz 								fx fy fz 								c_c1 c_c2 								c_3[1] c_3[2] c_3[3] c_3[4] c_3[5] c_3[6]
dump 	        2 all local ${savestep} dump.neigh index c_1[1] c_1[2] 										            c_2[1] c_2[2] 										            c_2[3] c_2[4] c_2[5]
dump 	        2 all local 100000 dump.neigh index c_1[1] c_1[2] 										            c_2[1] c_2[2] 										            c_2[3] c_2[4] c_2[5]

######################################
# EQUILIBRATION
timestep 		${tstep}
timestep 		0.0001
fix             relax all box/relax iso 0 vmax .0001
min_modify		dmax 0.2 line quadratic
minimize		1e-20  1e-20  1000000  1000000
WARNING: Using 'neigh_modify every 1 delay 0 check yes' setting during minimization (../min.cpp:188)
WARNING: Using compute temp/deform with no fix deform defined (../compute_temp_deform.cpp:79)
Neighbor list info ...
  update every 1 steps, delay 0 steps, check yes
  max neighbors/atom: 2000, page size: 100000
  master list distance cutoff = 1.3
  ghost atom cutoff = 1.3
  binsize = 0.65, bins = 77 80 1
  4 neighbor lists, perpetual/occasional/extra = 1 3 0
  (1) pair lj/cut, perpetual
      attributes: half, newton on
      pair build: half/bin/newton/tri
      stencil: half/bin/2d/newton/tri
      bin: standard
  (2) compute centro/atom, occasional
      attributes: full, newton on
      pair build: full/bin/atomonly
      stencil: full/bin/2d
      bin: standard
  (3) compute property/local, occasional, copy from (1)
      attributes: half, newton on
      pair build: copy
      stencil: none
      bin: none
  (4) compute pair/local, occasional, copy from (1)
      attributes: half, newton on
      pair build: copy
      stencil: none
      bin: none
Per MPI rank memory allocation (min/avg/max) = 12.40 | 12.40 | 12.40 Mbytes
Atoms v_t Step PotEng KinEng TotEng Lx Ly Lz Press Pxx Pyy Pzz 
    3000            0        0 6.1867844e-14            0 6.1867844e-14           50    51.961524          0.5     12.87722    8.9327634    16.821677            0 
    3000       0.0001        1 6.1901595e-14            0 6.1901595e-14           50    51.961524          0.5    12.881839    8.9350728    16.828606            0 
Loop time of 0.0177422 on 1 procs for 1 steps with 3000 atoms

97.5% CPU use with 1 MPI tasks x no OpenMP threads

Minimization stats:
  Stopping criterion = quadratic factors are zero
  Energy initial, next-to-last, final = 
    6.18678441810523e-14 6.18678441810523e-14 6.19015949610009e-14
  Force two-norm initial, final = 66937.583 66961.574
  Force max component initial, final = 66912.000 66936.000
  Final line search alpha, max atom move = 1.4945002e-09 0.00010003587
  Iterations, force evaluations = 1 2

MPI task timing breakdown:
Section |  min time  |  avg time  |  max time  |%varavg| %total
---------------------------------------------------------------
Pair    | 0.00031495 | 0.00031495 | 0.00031495 |   0.0 |  1.78
Neigh   | 0          | 0          | 0          |   0.0 |  0.00
Comm    | 3.5763e-05 | 3.5763e-05 | 3.5763e-05 |   0.0 |  0.20
Output  | 0          | 0          | 0          |   0.0 |  0.00
Modify  | 5.4598e-05 | 5.4598e-05 | 5.4598e-05 |   0.0 |  0.31
Other   |            | 0.01734    |            |       | 97.72

Nlocal:        3000.00 ave        3000 max        3000 min
Histogram: 1 0 0 0 0 0 0 0 0 0
Nghost:        307.000 ave         307 max         307 min
Histogram: 1 0 0 0 0 0 0 0 0 0
Neighs:        9000.00 ave        9000 max        9000 min
Histogram: 1 0 0 0 0 0 0 0 0 0
FullNghs:       0.00000 ave           0 max           0 min
Histogram: 1 0 0 0 0 0 0 0 0 0

Total # of neighbors = 9000
Ave neighs/atom = 3.0000000
Neighbor list builds = 0
Dangerous builds = 0

unfix 	        relax
# fix				_nve_ all nve/sphere
# fix				_damp_ all langevin 0 0 .1 699483
# run				${rstep}
# unfix 			_nve_
# unfix 			_damp_

# ######################################
# DEFROMATION
reset_timestep	0
# fix				_nve_ all nve/sphere
# fix				_damp_ all langevin 0 0 .1 699483
# fix				_deform_ all deform 1 y scale .99999990 #remap x

variable 		T equal 1e-20
fix 			_nvt_ all nvt/sllod temp $T $T 100.0
fix 			_nvt_ all nvt/sllod temp 1e-20 $T 100.0
fix 			_nvt_ all nvt/sllod temp 1e-20 1e-20 100.0
fix				_deform_ all deform 1 xy erate 0.001 remap v
# # fix             _deform_ all deform 1 y scale .99 x scale .99 remap x # Strain of 1e-4
run				${rstep}
run				1000000
Per MPI rank memory allocation (min/avg/max) = 11.29 | 11.29 | 11.29 Mbytes
Atoms v_t Step PotEng KinEng TotEng Lx Ly Lz Press Pxx Pyy Pzz 
    3000            0        0 6.1867844e-14 0.00022976169 0.00022976169           50    51.961524          0.5    12.877486     8.933294    16.821677            0 
    3000           10   100000   0.10756557 2.8575077e-32   0.10756557           50    51.961524          0.5    21.837524    21.033584    22.641463            0 
    3000           20   200000   0.22257504 1.404731e-32   0.22257504           50    51.961524          0.5     22.99893    21.382781    24.615079            0 
    3000           30   300000   0.34526708 1.0377827e-32   0.34526708           50    51.961524          0.5    24.228784    21.747684    26.709884            0 
    3000           40   400000   0.47586888 8.4987816e-33   0.47586888           50    51.961524          0.5     25.51465    22.099075    28.930226            0 
    3000           50   500000    0.6145953 7.4064329e-33    0.6145953           50    51.961524          0.5    26.853227    22.426136    31.280318            0 
    3000           60   600000   0.76164673 6.8224447e-33   0.76164673           50    51.961524          0.5    28.259569     22.75493    33.764208            0 
    3000           70   700000   0.91720684 6.0236366e-33   0.91720684           50    51.961524          0.5    29.730118    23.074502    36.385734            0 
    3000           80   800000    1.0814402 5.8442489e-33    1.0814402           50    51.961524          0.5    31.256545    23.364608    39.148482            0 
    3000           90   900000    1.2544898 5.8242132e-33    1.2544898           50    51.961524          0.5    32.853443    23.651142    42.055745            0 
    3000          100  1000000    1.4364747 6.0005537e-33    1.4364747           50    51.961524          0.5    34.525982     23.94149    45.110473            0 
Loop time of 300.895 on 1 procs for 1000000 steps with 3000 atoms

Performance: 28714.361 tau/day, 3323.421 timesteps/s
100.0% CPU use with 1 MPI tasks x no OpenMP threads

MPI task timing breakdown:
Section |  min time  |  avg time  |  max time  |%varavg| %total
---------------------------------------------------------------
Pair    | 90.532     | 90.532     | 90.532     |   0.0 | 30.09
Neigh   | 0.019511   | 0.019511   | 0.019511   |   0.0 |  0.01
Comm    | 9.6409     | 9.6409     | 9.6409     |   0.0 |  3.20
Output  | 0.2379     | 0.2379     | 0.2379     |   0.0 |  0.08
Modify  | 190.14     | 190.14     | 190.14     |   0.0 | 63.19
Other   |            | 10.32      |            |       |  3.43

Nlocal:        3000.00 ave        3000 max        3000 min
Histogram: 1 0 0 0 0 0 0 0 0 0
Nghost:        307.000 ave         307 max         307 min
Histogram: 1 0 0 0 0 0 0 0 0 0
Neighs:        9000.00 ave        9000 max        9000 min
Histogram: 1 0 0 0 0 0 0 0 0 0
FullNghs:       0.00000 ave           0 max           0 min
Histogram: 1 0 0 0 0 0 0 0 0 0

Total # of neighbors = 9000
Ave neighs/atom = 3.0000000
Neighbor list builds = 69
Dangerous builds = 0

unfix			_deform_
unfix 			_nvt_

reset_timestep	0
min_modify		dmax 0.2 line quadratic
# min_modify 		cg
minimize		1e-20  1e-20  100000  100000
WARNING: Using 'neigh_modify every 1 delay 0 check yes' setting during minimization (../min.cpp:188)
WARNING: Using compute temp/deform with no fix deform defined (../compute_temp_deform.cpp:79)
Per MPI rank memory allocation (min/avg/max) = 12.51 | 12.51 | 12.51 Mbytes
Atoms v_t Step PotEng KinEng TotEng Lx Ly Lz Press Pxx Pyy Pzz 
    3000            0        0    1.4364766 0.00024130704    1.4367179           50    51.961524          0.5    34.526278    23.942051    45.110504            0 
    3000       0.0017       17    1.4364744 0.00024130704    1.4367157           50    51.961524          0.5    34.715626    24.320748    45.110504            0 
Loop time of 0.1138 on 1 procs for 17 steps with 3000 atoms

99.5% CPU use with 1 MPI tasks x no OpenMP threads

Minimization stats:
  Stopping criterion = linesearch alpha is zero
  Energy initial, next-to-last, final = 
      1.43647657669452   1.43647439217694   1.43647439217694
  Force two-norm initial, final = 1225.6522 529.08958
  Force max component initial, final = 24.002971 24.002617
  Final line search alpha, max atom move = 1.0678573e-10 2.5631370e-09
  Iterations, force evaluations = 17 449

MPI task timing breakdown:
Section |  min time  |  avg time  |  max time  |%varavg| %total
---------------------------------------------------------------
Pair    | 0.059014   | 0.059014   | 0.059014   |   0.0 | 51.86
Neigh   | 0.0095451  | 0.0095451  | 0.0095451  |   0.0 |  8.39
Comm    | 0.0047338  | 0.0047338  | 0.0047338  |   0.0 |  4.16
Output  | 0          | 0          | 0          |   0.0 |  0.00
Modify  | 0.0051472  | 0.0051472  | 0.0051472  |   0.0 |  4.52
Other   |            | 0.03536    |            |       | 31.07

Nlocal:        3000.00 ave        3000 max        3000 min
Histogram: 1 0 0 0 0 0 0 0 0 0
Nghost:        307.000 ave         307 max         307 min
Histogram: 1 0 0 0 0 0 0 0 0 0
Neighs:        9000.00 ave        9000 max        9000 min
Histogram: 1 0 0 0 0 0 0 0 0 0
FullNghs:       0.00000 ave           0 max           0 min
Histogram: 1 0 0 0 0 0 0 0 0 0

Total # of neighbors = 9000
Ave neighs/atom = 3.0000000
Neighbor list builds = 34
Dangerous builds = 1

variable		strain equal "(v_L0 - ly)/v_L0"
variable		p1 equal "v_strain"
variable		tmp equal "ly"
print			"${p1} ${tmp} ${L0}"
-9.57208092777597e-16 51.9615242270663 51.9615242270663
Total wall time: 0:05:01
